c description: Random 3-CNF over 18 variables and 77 clauses
c generator: CNFgen (0.9.2)
c copyright: (C) 2012-2022 Massimo Lauria <massimo.lauria@uniroma1.it>
c url: https://massimolauria.net/cnfgen
c command line: cnfgen --output CNF_4.28/18_bit_77_373.cnf randkcnf 3 18 77
c
p cnf 18 77
-1 -16 17 0
1 -6 9 0
-4 -13 -15 0
10 -16 17 0
5 -14 -16 0
8 14 -17 0
-3 -10 -15 0
1 -6 11 0
-1 -12 13 0
2 5 17 0
-4 -12 16 0
-3 -5 16 0
-1 9 16 0
-2 13 -16 0
14 15 -18 0
-5 -7 17 0
-3 11 14 0
3 -13 14 0
-2 -4 -11 0
2 4 -16 0
-2 12 -18 0
-11 -12 18 0
1 -2 -7 0
7 8 11 0
9 12 17 0
6 9 -10 0
8 16 -17 0
-1 3 7 0
6 8 14 0
2 -3 5 0
9 -11 -12 0
1 -3 17 0
-9 11 -12 0
4 8 10 0
-6 -13 17 0
-2 5 -12 0
-5 16 18 0
-5 9 -10 0
2 5 7 0
1 10 12 0
5 -13 15 0
4 6 -16 0
-8 -9 -13 0
-8 12 -16 0
-4 11 -16 0
-2 -8 18 0
6 -7 -15 0
-6 12 -17 0
-7 -13 16 0
11 15 16 0
-4 10 -13 0
3 5 14 0
-3 -6 13 0
-4 -12 -18 0
-2 16 -18 0
-5 -12 -13 0
-3 4 17 0
8 -14 -15 0
-8 13 -15 0
-3 -16 17 0
-5 8 -17 0
6 7 13 0
-9 11 -18 0
-9 -16 18 0
3 -8 -18 0
-3 14 -16 0
-5 -12 15 0
-8 11 14 0
3 7 15 0
8 -11 -12 0
10 13 -18 0
-1 -14 18 0
1 4 8 0
-5 6 9 0
6 -8 16 0
-3 -7 18 0
3 15 18 0
